param n := 250;
param c := 1500
param : V : p w :=
   0	  65	  55
   1	  38	  28
   2	  55	  45
   3	  81	  71
   4	  66	  56
   5	  55	  45
   6	  73	  63
   7	  36	  26
   8	  30	  20
   9	  44	  34
  10	  88	  78
  11	  36	  26
  12	  31	  21
  13	 109	  99
  14	  60	  50
  15	  62	  52
  16	  39	  29
  17	  62	  52
  18	  94	  84
  19	  88	  78
  20	  94	  84
  21	  99	  89
  22	 103	  93
  23	  93	  83
  24	 107	  97
  25	  45	  35
  26	  39	  29
  27	  90	  80
  28	 109	  99
  29	  96	  86
  30	  73	  63
  31	 110	 100
  32	  97	  87
  33	  64	  54
  34	  58	  48
  35	  82	  72
  36	 108	  98
  37	  53	  43
  38	  91	  81
  39	 106	  96
  40	  87	  77
  41	 102	  92
  42	  42	  32
  43	  76	  66
  44	  92	  82
  45	  62	  52
  46	  40	  30
  47	  62	  52
  48	 107	  97
  49	  66	  56
  50	  54	  44
  51	  77	  67
  52	  70	  60
  53	  89	  79
  54	  88	  78
  55	 100	  90
  56	  48	  38
  57	 109	  99
  58	  52	  42
  59	 107	  97
  60	  73	  63
  61	  49	  39
  62	  79	  69
  63	  77	  67
  64	 101	  91
  65	  48	  38
  66	  47	  37
  67	  61	  51
  68	 108	  98
  69	  40	  30
  70	  87	  77
  71	  88	  78
  72	  45	  35
  73	  43	  33
  74	 104	  94
  75	  46	  36
  76	  69	  59
  77	  95	  85
  78	 108	  98
  79	  90	  80
  80	  89	  79
  81	  78	  68
  82	  71	  61
  83	  37	  27
  84	 105	  95
  85	  93	  83
  86	 101	  91
  87	 100	  90
  88	  48	  38
  89	 103	  93
  90	  32	  22
  91	  45	  35
  92	  48	  38
  93	 110	 100
  94	  36	  26
  95	  45	  35
  96	  74	  64
  97	  50	  40
  98	  89	  79
  99	  59	  49
 100	  98	  88
 101	  51	  41
 102	  38	  28
 103	  72	  62
 104	  88	  78
 105	  75	  65
 106	 100	  90
 107	  45	  35
 108	  60	  50
 109	  72	  62
 110	 101	  91
 111	  67	  57
 112	  70	  60
 113	  60	  50
 114	  38	  28
 115	  87	  77
 116	 107	  97
 117	  45	  35
 118	  50	  40
 119	  31	  21
 120	  83	  73
 121	  40	  30
 122	  85	  75
 123	  60	  50
 124	  37	  27
 125	  68	  58
 126	  69	  59
 127	 104	  94
 128	  70	  60
 129	  65	  55
 130	  99	  89
 131	  94	  84
 132	 101	  91
 133	  75	  65
 134	 109	  99
 135	  99	  89
 136	  93	  83
 137	  57	  47
 138	  62	  52
 139	  34	  24
 140	  76	  66
 141	 108	  98
 142	  61	  51
 143	  31	  21
 144	  33	  23
 145	  88	  78
 146	  51	  41
 147	 109	  99
 148	  62	  52
 149	  46	  36
 150	  79	  69
 151	  80	  70
 152	 101	  91
 153	  64	  54
 154	  48	  38
 155	 108	  98
 156	  67	  57
 157	  74	  64
 158	  86	  76
 159	  71	  61
 160	  41	  31
 161	  37	  27
 162	  33	  23
 163	  32	  22
 164	  71	  61
 165	  75	  65
 166	  45	  35
 167	  47	  37
 168	  85	  75
 169	  64	  54
 170	 107	  97
 171	  55	  45
 172	  88	  78
 173	  32	  22
 174	  89	  79
 175	  86	  76
 176	  91	  81
 177	  88	  78
 178	  51	  41
 179	  69	  59
 180	  38	  28
 181	  68	  58
 182	 100	  90
 183	  88	  78
 184	  67	  57
 185	  73	  63
 186	  34	  24
 187	  37	  27
 188	  89	  79
 189	  77	  67
 190	  98	  88
 191	  59	  49
 192	  67	  57
 193	  88	  78
 194	  97	  87
 195	  76	  66
 196	 101	  91
 197	  47	  37
 198	  61	  51
 199	  59	  49
 200	  94	  84
 201	  42	  32
 202	  72	  62
 203	  46	  36
 204	  62	  52
 205	  82	  72
 206	  69	  59
 207	  87	  77
 208	  64	  54
 209	  56	  46
 210	  67	  57
 211	  79	  69
 212	  91	  81
 213	  90	  80
 214	 109	  99
 215	  97	  87
 216	  43	  33
 217	  55	  45
 218	  53	  43
 219	  76	  66
 220	  38	  28
 221	  40	  30
 222	  64	  54
 223	  33	  23
 224	  89	  79
 225	  79	  69
 226	  66	  56
 227	  34	  24
 228	  92	  82
 229	  68	  58
 230	  47	  37
 231	  66	  56
 232	  92	  82
 233	  33	  23
 234	  88	  78
 235	  73	  63
 236	  74	  64
 237	  47	  37
 238	  76	  66
 239	  46	  36
 240	  51	  41
 241	  81	  71
 242	  58	  48
 243	  52	  42
 244	  36	  26
 245	  55	  45
 246	  36	  26
 247	  96	  86
 248	  74	  64
 249	  64	  54
;

set E :=
   0	   7
   0	  15
   0	  17
   0	  21
   0	  24
   0	  27
   0	  29
   0	  31
   0	  34
   0	  38
   0	  50
   0	  52
   0	  71
   0	  89
   0	  94
   0	 147
   0	 159
   0	 165
   0	 171
   0	 177
   0	 183
   0	 188
   0	 192
   0	 193
   0	 201
   0	 204
   0	 209
   0	 236
   0	 244
   0	 248
   1	  14
   1	  29
   1	  41
   1	  58
   1	  81
   1	  84
   1	 109
   1	 115
   1	 119
   1	 120
   1	 125
   1	 135
   1	 139
   1	 143
   1	 153
   1	 158
   1	 165
   1	 198
   1	 204
   1	 209
   1	 213
   1	 215
   1	 225
   1	 226
   1	 230
   1	 246
   2	  19
   2	  23
   2	  33
   2	  45
   2	  54
   2	  77
   2	  98
   2	 101
   2	 110
   2	 113
   2	 117
   2	 118
   2	 133
   2	 134
   2	 140
   2	 146
   2	 160
   2	 164
   2	 167
   2	 168
   2	 189
   2	 222
   2	 237
   2	 241
   3	   4
   3	   9
   3	  14
   3	  19
   3	  23
   3	  27
   3	  29
   3	  32
   3	  62
   3	  68
   3	  74
   3	  80
   3	  92
   3	  98
   3	 115
   3	 125
   3	 137
   3	 140
   3	 148
   3	 155
   3	 165
   3	 173
   3	 177
   3	 182
   3	 205
   3	 208
   3	 210
   3	 230
   3	 242
   3	 247
   3	 248
   4	  15
   4	  25
   4	  39
   4	  43
   4	  49
   4	  62
   4	  79
   4	  81
   4	  82
   4	 101
   4	 102
   4	 112
   4	 115
   4	 117
   4	 120
   4	 127
   4	 206
   4	 207
   4	 208
   4	 222
   5	   7
   5	   8
   5	   9
   5	  18
   5	  20
   5	  28
   5	  39
   5	  41
   5	  51
   5	  56
   5	  76
   5	  77
   5	  78
   5	  79
   5	 112
   5	 126
   5	 130
   5	 134
   5	 135
   5	 141
   5	 142
   5	 158
   5	 168
   5	 182
   5	 186
   5	 198
   5	 214
   6	  34
   6	  35
   6	  40
   6	  42
   6	  76
   6	  94
   6	  95
   6	 107
   6	 119
   6	 124
   6	 126
   6	 130
   6	 135
   6	 153
   6	 162
   6	 172
   6	 188
   6	 200
   6	 227
   6	 232
   6	 237
   6	 241
   7	   8
   7	  24
   7	  27
   7	  63
   7	  66
   7	  78
   7	  79
   7	  88
   7	  96
   7	 102
   7	 106
   7	 126
   7	 141
   7	 146
   7	 153
   7	 157
   7	 159
   7	 163
   7	 176
   7	 219
   7	 227
   7	 245
   8	  19
   8	  22
   8	  33
   8	  35
   8	  36
   8	  57
   8	  59
   8	  69
   8	  71
   8	  76
   8	  77
   8	  88
   8	 108
   8	 114
   8	 119
   8	 123
   8	 124
   8	 126
   8	 132
   8	 145
   8	 156
   8	 160
   8	 165
   8	 171
   8	 195
   8	 200
   8	 209
   8	 222
   8	 225
   8	 229
   8	 237
   8	 243
   8	 247
   8	 248
   9	  15
   9	  29
   9	  36
   9	  42
   9	  47
   9	  55
   9	  63
   9	  66
   9	  73
   9	  85
   9	 108
   9	 156
   9	 183
   9	 202
   9	 205
   9	 220
   9	 228
   9	 238
   9	 239
   9	 242
   9	 244
  10	  19
  10	  26
  10	  54
  10	  55
  10	  69
  10	  94
  10	  99
  10	 108
  10	 133
  10	 147
  10	 150
  10	 155
  10	 164
  10	 173
  10	 178
  10	 198
  10	 199
  10	 219
  10	 220
  10	 227
  10	 235
  10	 240
  11	  15
  11	  32
  11	  36
  11	 103
  11	 104
  11	 109
  11	 145
  11	 150
  11	 151
  11	 168
  11	 171
  11	 172
  11	 174
  11	 183
  11	 188
  11	 193
  11	 194
  11	 197
  11	 231
  11	 244
  12	  15
  12	  21
  12	  32
  12	  34
  12	  38
  12	  44
  12	  48
  12	  59
  12	  64
  12	  66
  12	  85
  12	  92
  12	  97
  12	 117
  12	 125
  12	 146
  12	 155
  12	 160
  12	 191
  12	 193
  12	 204
  12	 208
  12	 213
  12	 219
  12	 237
  13	  21
  13	  22
  13	  45
  13	  63
  13	  70
  13	  76
  13	  83
  13	  97
  13	 115
  13	 122
  13	 139
  13	 145
  13	 148
  13	 158
  13	 159
  13	 162
  13	 176
  13	 178
  13	 186
  13	 206
  13	 221
  13	 225
  13	 228
  13	 229
  13	 249
  14	  36
  14	  37
  14	  61
  14	  75
  14	  76
  14	 126
  14	 127
  14	 135
  14	 149
  14	 155
  14	 179
  14	 220
  14	 230
  14	 237
  14	 246
  15	  36
  15	  41
  15	  46
  15	  52
  15	  59
  15	  61
  15	  62
  15	  80
  15	  81
  15	  88
  15	 108
  15	 113
  15	 129
  15	 138
  15	 145
  15	 151
  15	 152
  15	 153
  15	 157
  15	 161
  15	 178
  15	 181
  15	 188
  15	 193
  15	 204
  15	 227
  15	 248
  16	  19
  16	  21
  16	  47
  16	  52
  16	  56
  16	  66
  16	  68
  16	  70
  16	  92
  16	  94
  16	 101
  16	 105
  16	 115
  16	 138
  16	 140
  16	 144
  16	 152
  16	 155
  16	 165
  16	 181
  16	 185
  16	 213
  16	 219
  16	 228
  16	 232
  16	 239
  16	 240
  16	 244
  17	  28
  17	  29
  17	  36
  17	  41
  17	  59
  17	  64
  17	  67
  17	  70
  17	  93
  17	  99
  17	 117
  17	 134
  17	 146
  17	 156
  17	 163
  17	 168
  17	 204
  17	 208
  17	 210
  17	 224
  17	 227
  17	 245
  18	  40
  18	  42
  18	  47
  18	  77
  18	 104
  18	 111
  18	 113
  18	 119
  18	 122
  18	 160
  18	 163
  18	 164
  18	 168
  18	 171
  18	 180
  18	 183
  18	 188
  18	 194
  18	 200
  18	 208
  18	 209
  18	 213
  18	 216
  18	 223
  18	 226
  18	 228
  18	 247
  19	  29
  19	  40
  19	  51
  19	  76
  19	  91
  19	 109
  19	 119
  19	 134
  19	 159
  19	 167
  19	 171
  19	 173
  19	 175
  19	 177
  19	 191
  19	 208
  19	 211
  19	 215
  19	 219
  19	 224
  19	 226
  19	 247
  20	  34
  20	  38
  20	  65
  20	  73
  20	  77
  20	  87
  20	  95
  20	 110
  20	 117
  20	 124
  20	 132
  20	 134
  20	 142
  20	 149
  20	 175
  20	 178
  20	 188
  20	 195
  20	 213
  20	 216
  20	 218
  20	 224
  20	 231
  20	 238
  20	 246
  20	 248
  21	  22
  21	  28
  21	  31
  21	  34
  21	  42
  21	  46
  21	  54
  21	  58
  21	  64
  21	  74
  21	  85
  21	 100
  21	 108
  21	 110
  21	 119
  21	 124
  21	 128
  21	 136
  21	 146
  21	 156
  21	 185
  21	 186
  21	 207
  21	 211
  21	 216
  21	 219
  21	 221
  21	 225
  21	 234
  21	 235
  21	 236
  21	 237
  21	 244
  22	  34
  22	  46
  22	  67
  22	  68
  22	  69
  22	  92
  22	  94
  22	  97
  22	 103
  22	 107
  22	 119
  22	 137
  22	 138
  22	 144
  22	 203
  22	 215
  22	 221
  22	 222
  22	 224
  22	 242
  22	 246
  23	  45
  23	  54
  23	  57
  23	  69
  23	  88
  23	 141
  23	 165
  23	 169
  23	 174
  23	 181
  23	 246
  24	  51
  24	  83
  24	  84
  24	 108
  24	 111
  24	 134
  24	 148
  24	 161
  24	 168
  24	 172
  24	 174
  24	 175
  24	 177
  24	 179
  24	 184
  24	 190
  24	 203
  24	 207
  24	 209
  24	 213
  24	 216
  24	 227
  24	 229
  24	 238
  24	 249
  25	  27
  25	  28
  25	  34
  25	  50
  25	  51
  25	  52
  25	  75
  25	  79
  25	  86
  25	  89
  25	  97
  25	 115
  25	 118
  25	 135
  25	 137
  25	 141
  25	 149
  25	 197
  25	 223
  25	 230
  26	  63
  26	  66
  26	  71
  26	  73
  26	  80
  26	  85
  26	  90
  26	  99
  26	 112
  26	 115
  26	 125
  26	 131
  26	 140
  26	 144
  26	 162
  26	 185
  26	 200
  26	 204
  26	 215
  26	 232
  27	  35
  27	  43
  27	  72
  27	  82
  27	  83
  27	  94
  27	 102
  27	 139
  27	 145
  27	 152
  27	 155
  27	 163
  27	 164
  27	 175
  27	 187
  27	 194
  27	 197
  27	 203
  27	 211
  27	 220
  27	 227
  27	 228
  27	 236
  28	  37
  28	  42
  28	  43
  28	  52
  28	  54
  28	  60
  28	  68
  28	  72
  28	  79
  28	  83
  28	  85
  28	  94
  28	 115
  28	 116
  28	 137
  28	 146
  28	 148
  28	 171
  28	 182
  28	 184
  28	 185
  28	 220
  28	 232
  28	 243
  29	  35
  29	  36
  29	  45
  29	  48
  29	  57
  29	  87
  29	  88
  29	  91
  29	  92
  29	 117
  29	 140
  29	 148
  29	 150
  29	 152
  29	 153
  29	 156
  29	 159
  29	 173
  29	 188
  29	 189
  29	 199
  29	 214
  29	 221
  29	 236
  29	 243
  30	  34
  30	  36
  30	  44
  30	  54
  30	  57
  30	  58
  30	  82
  30	  92
  30	  93
  30	  94
  30	 103
  30	 114
  30	 119
  30	 126
  30	 134
  30	 137
  30	 146
  30	 195
  30	 231
  30	 246
  30	 248
  31	  52
  31	  57
  31	  58
  31	  83
  31	  85
  31	  93
  31	 105
  31	 114
  31	 115
  31	 167
  31	 175
  31	 180
  31	 189
  31	 194
  31	 202
  31	 241
  32	  45
  32	  50
  32	  56
  32	  58
  32	  59
  32	  62
  32	  68
  32	  84
  32	  94
  32	 106
  32	 109
  32	 112
  32	 123
  32	 125
  32	 127
  32	 128
  32	 149
  32	 181
  32	 183
  32	 205
  32	 217
  32	 226
  32	 228
  32	 231
  32	 239
  32	 241
  32	 243
  32	 246
  33	  39
  33	  49
  33	 125
  33	 130
  33	 139
  33	 158
  33	 160
  33	 171
  33	 177
  33	 188
  33	 209
  33	 212
  33	 217
  33	 242
  34	  55
  34	  65
  34	  79
  34	 103
  34	 106
  34	 109
  34	 114
  34	 115
  34	 133
  34	 144
  34	 154
  34	 156
  34	 172
  34	 188
  34	 189
  34	 201
  34	 224
  34	 229
  34	 230
  34	 242
  34	 249
  35	  36
  35	  44
  35	  63
  35	  78
  35	  81
  35	  85
  35	  86
  35	 100
  35	 102
  35	 106
  35	 127
  35	 134
  35	 135
  35	 164
  35	 195
  35	 218
  35	 236
  36	  51
  36	  54
  36	  67
  36	  92
  36	 103
  36	 109
  36	 121
  36	 125
  36	 132
  36	 133
  36	 137
  36	 148
  36	 153
  36	 157
  36	 160
  36	 173
  36	 174
  36	 176
  36	 189
  36	 204
  36	 231
  36	 236
  36	 237
  36	 241
  36	 246
  37	  40
  37	  45
  37	  46
  37	  48
  37	  61
  37	  71
  37	  83
  37	 106
  37	 107
  37	 123
  37	 130
  37	 135
  37	 155
  37	 158
  37	 164
  37	 171
  37	 180
  37	 181
  37	 187
  37	 198
  37	 207
  37	 229
  37	 247
  38	  47
  38	  53
  38	  72
  38	  81
  38	  93
  38	  96
  38	 110
  38	 132
  38	 137
  38	 144
  38	 146
  38	 153
  38	 172
  38	 173
  38	 214
  38	 234
  38	 242
  39	  47
  39	  64
  39	  70
  39	  83
  39	  94
  39	 102
  39	 105
  39	 115
  39	 120
  39	 147
  39	 149
  39	 152
  39	 153
  39	 161
  39	 166
  39	 170
  39	 184
  39	 190
  39	 215
  39	 224
  39	 227
  39	 228
  39	 229
  39	 230
  39	 239
  39	 245
  40	  41
  40	  42
  40	  45
  40	  53
  40	  59
  40	  82
  40	  91
  40	 106
  40	 110
  40	 113
  40	 128
  40	 132
  40	 137
  40	 147
  40	 151
  40	 161
  40	 200
  40	 201
  40	 213
  40	 222
  40	 224
  40	 247
  41	  44
  41	  46
  41	  52
  41	  58
  41	  62
  41	  65
  41	  72
  41	  78
  41	  79
  41	  82
  41	  84
  41	  89
  41	  90
  41	 104
  41	 105
  41	 106
  41	 129
  41	 140
  41	 144
  41	 145
  41	 167
  41	 171
  41	 180
  41	 185
  41	 206
  41	 210
  41	 213
  41	 223
  41	 230
  41	 239
  41	 244
  42	  49
  42	  60
  42	  61
  42	  66
  42	  68
  42	  89
  42	 137
  42	 147
  42	 148
  42	 151
  42	 200
  42	 202
  42	 205
  42	 222
  42	 234
  42	 236
  43	  50
  43	  60
  43	  62
  43	  64
  43	  70
  43	  84
  43	  93
  43	  96
  43	 103
  43	 137
  43	 139
  43	 140
  43	 151
  43	 176
  43	 190
  43	 204
  43	 218
  43	 220
  43	 223
  43	 229
  43	 238
  43	 249
  44	  65
  44	  74
  44	  80
  44	  83
  44	 118
  44	 165
  44	 171
  44	 172
  44	 187
  44	 213
  44	 224
  44	 232
  44	 233
  44	 238
  44	 242
  44	 248
  45	  46
  45	  49
  45	  68
  45	  69
  45	 105
  45	 108
  45	 112
  45	 120
  45	 121
  45	 176
  45	 211
  45	 218
  45	 225
  45	 228
  45	 229
  46	  57
  46	  68
  46	  73
  46	  98
  46	 100
  46	 103
  46	 122
  46	 128
  46	 154
  46	 168
  46	 181
  46	 183
  46	 206
  46	 208
  46	 210
  46	 214
  46	 218
  46	 227
  46	 229
  46	 235
  46	 246
  47	  57
  47	  66
  47	  68
  47	  97
  47	 118
  47	 126
  47	 135
  47	 157
  47	 166
  47	 172
  47	 179
  47	 191
  47	 214
  47	 217
  47	 229
  47	 232
  47	 240
  47	 248
  48	  50
  48	  52
  48	  53
  48	  74
  48	  83
  48	  84
  48	  92
  48	  96
  48	 119
  48	 128
  48	 132
  48	 141
  48	 142
  48	 150
  48	 152
  48	 173
  48	 188
  48	 198
  48	 211
  48	 218
  48	 219
  48	 220
  48	 223
  48	 239
  49	  63
  49	  65
  49	  70
  49	  77
  49	  91
  49	  94
  49	 115
  49	 128
  49	 132
  49	 152
  49	 155
  49	 164
  49	 178
  49	 181
  49	 183
  49	 198
  49	 208
  49	 220
  50	  51
  50	  62
  50	 101
  50	 107
  50	 118
  50	 126
  50	 129
  50	 140
  50	 147
  50	 151
  50	 155
  50	 160
  50	 178
  50	 185
  50	 200
  50	 214
  50	 217
  50	 227
  50	 232
  50	 234
  50	 248
  51	  54
  51	  56
  51	  75
  51	  78
  51	  81
  51	  88
  51	  89
  51	 107
  51	 124
  51	 131
  51	 135
  51	 137
  51	 165
  51	 168
  51	 169
  51	 170
  51	 192
  51	 201
  51	 207
  51	 228
  51	 230
  51	 232
  51	 235
  51	 247
  52	  59
  52	  63
  52	  72
  52	  89
  52	  91
  52	 113
  52	 117
  52	 131
  52	 147
  52	 152
  52	 153
  52	 159
  52	 188
  52	 192
  52	 193
  52	 195
  52	 211
  52	 213
  52	 218
  52	 229
  52	 238
  53	  55
  53	  61
  53	  62
  53	  64
  53	  77
  53	  82
  53	  84
  53	  90
  53	 102
  53	 106
  53	 128
  53	 138
  53	 139
  53	 146
  53	 149
  53	 156
  53	 168
  53	 189
  53	 191
  53	 195
  53	 206
  53	 207
  53	 208
  53	 226
  53	 239
  54	  61
  54	  69
  54	  76
  54	  87
  54	  92
  54	  97
  54	 115
  54	 127
  54	 146
  54	 154
  54	 155
  54	 165
  54	 193
  54	 203
  54	 207
  54	 222
  54	 235
  54	 242
  55	  75
  55	  77
  55	  78
  55	  83
  55	  84
  55	  88
  55	  93
  55	  94
  55	  96
  55	 104
  55	 124
  55	 146
  55	 148
  55	 149
  55	 155
  55	 156
  55	 189
  55	 201
  55	 221
  55	 225
  56	  62
  56	  77
  56	  84
  56	  99
  56	 105
  56	 115
  56	 142
  56	 155
  56	 156
  56	 175
  56	 184
  56	 185
  56	 210
  56	 220
  56	 230
  56	 236
  56	 245
  57	  78
  57	  95
  57	  96
  57	 117
  57	 131
  57	 154
  57	 156
  57	 174
  57	 184
  57	 197
  57	 199
  57	 210
  57	 217
  57	 223
  57	 230
  57	 238
  57	 245
  57	 246
  58	 107
  58	 128
  58	 148
  58	 174
  58	 175
  58	 193
  58	 195
  58	 213
  58	 229
  58	 230
  58	 237
  58	 248
  59	  77
  59	  86
  59	  95
  59	  96
  59	 100
  59	 101
  59	 104
  59	 113
  59	 119
  59	 138
  59	 141
  59	 152
  59	 155
  59	 171
  59	 194
  59	 208
  60	  66
  60	  73
  60	  76
  60	  91
  60	 102
  60	 126
  60	 128
  60	 129
  60	 147
  60	 154
  60	 169
  60	 178
  60	 186
  60	 192
  60	 198
  60	 222
  60	 236
  61	  71
  61	 100
  61	 104
  61	 111
  61	 134
  61	 141
  61	 142
  61	 160
  61	 203
  61	 216
  61	 221
  61	 222
  61	 237
  62	  94
  62	  97
  62	 128
  62	 150
  62	 152
  62	 167
  62	 169
  62	 177
  62	 193
  62	 194
  62	 201
  62	 206
  62	 214
  62	 221
  62	 223
  62	 230
  62	 239
  63	  80
  63	 103
  63	 111
  63	 112
  63	 131
  63	 135
  63	 140
  63	 141
  63	 146
  63	 164
  63	 168
  63	 170
  63	 175
  63	 176
  63	 190
  63	 217
  63	 223
  63	 233
  63	 235
  64	  78
  64	 124
  64	 138
  64	 142
  64	 147
  64	 159
  64	 161
  64	 162
  64	 165
  64	 176
  64	 226
  64	 233
  64	 237
  64	 248
  64	 249
  65	  87
  65	 144
  65	 166
  65	 169
  65	 177
  65	 178
  65	 196
  65	 212
  65	 214
  65	 239
  66	  72
  66	  81
  66	  84
  66	 101
  66	 105
  66	 106
  66	 117
  66	 136
  66	 141
  66	 146
  66	 156
  66	 160
  66	 194
  66	 204
  66	 234
  66	 239
  66	 243
  66	 245
  67	  70
  67	  85
  67	 107
  67	 118
  67	 156
  67	 168
  67	 170
  67	 176
  67	 184
  67	 199
  67	 215
  67	 220
  67	 230
  67	 236
  68	  71
  68	  88
  68	  91
  68	 139
  68	 169
  68	 187
  68	 193
  68	 200
  68	 216
  68	 220
  68	 238
  68	 243
  69	  74
  69	  80
  69	  87
  69	  91
  69	  95
  69	 106
  69	 121
  69	 148
  69	 149
  69	 183
  69	 186
  69	 192
  69	 204
  69	 207
  69	 213
  69	 216
  69	 224
  69	 225
  69	 231
  69	 240
  69	 243
  70	  81
  70	  86
  70	  95
  70	  97
  70	 101
  70	 119
  70	 122
  70	 130
  70	 143
  70	 145
  70	 151
  70	 153
  70	 175
  70	 205
  70	 212
  70	 230
  71	  74
  71	  77
  71	  87
  71	  93
  71	  95
  71	 106
  71	 116
  71	 133
  71	 138
  71	 139
  71	 142
  71	 164
  71	 169
  71	 173
  71	 177
  71	 182
  71	 208
  71	 216
  71	 221
  71	 234
  71	 246
  72	  81
  72	  82
  72	  84
  72	 102
  72	 103
  72	 106
  72	 112
  72	 121
  72	 131
  72	 143
  72	 154
  72	 161
  72	 164
  72	 175
  72	 180
  72	 202
  72	 203
  72	 222
  72	 239
  73	  84
  73	 106
  73	 108
  73	 109
  73	 111
  73	 123
  73	 141
  73	 146
  73	 179
  73	 191
  73	 194
  73	 209
  73	 224
  73	 236
  73	 241
  73	 245
  74	  78
  74	  91
  74	 110
  74	 113
  74	 117
  74	 120
  74	 136
  74	 142
  74	 147
  74	 151
  74	 154
  74	 155
  74	 157
  74	 163
  74	 172
  74	 173
  74	 184
  74	 185
  74	 208
  74	 211
  74	 226
  74	 232
  74	 236
  74	 237
  74	 240
  74	 247
  75	  84
  75	  91
  75	  99
  75	 103
  75	 105
  75	 115
  75	 121
  75	 122
  75	 125
  75	 152
  75	 160
  75	 164
  75	 179
  75	 199
  75	 209
  75	 217
  75	 238
  75	 248
  76	  77
  76	  86
  76	  90
  76	 107
  76	 118
  76	 126
  76	 129
  76	 140
  76	 159
  76	 165
  76	 176
  76	 184
  76	 186
  76	 190
  76	 202
  76	 205
  76	 209
  76	 229
  77	  80
  77	  89
  77	 116
  77	 117
  77	 123
  77	 134
  77	 155
  77	 175
  77	 185
  77	 225
  77	 235
  77	 241
  78	  87
  78	  95
  78	 104
  78	 105
  78	 122
  78	 132
  78	 145
  78	 157
  78	 160
  78	 163
  78	 176
  78	 203
  78	 206
  78	 212
  78	 213
  78	 243
  78	 246
  79	  87
  79	  92
  79	 100
  79	 108
  79	 114
  79	 117
  79	 118
  79	 121
  79	 123
  79	 126
  79	 132
  79	 148
  79	 150
  79	 160
  79	 187
  79	 194
  79	 224
  79	 228
  79	 247
  80	 101
  80	 121
  80	 123
  80	 125
  80	 136
  80	 144
  80	 154
  80	 163
  80	 164
  80	 165
  80	 167
  80	 184
  80	 189
  80	 192
  80	 194
  80	 195
  80	 198
  80	 205
  80	 209
  80	 210
  80	 218
  80	 221
  80	 224
  80	 232
  80	 243
  81	  83
  81	  90
  81	 114
  81	 119
  81	 134
  81	 160
  81	 168
  81	 173
  81	 190
  81	 191
  81	 196
  81	 215
  81	 220
  81	 228
  82	  92
  82	  93
  82	  97
  82	 105
  82	 107
  82	 114
  82	 126
  82	 137
  82	 141
  82	 146
  82	 149
  82	 152
  82	 160
  82	 165
  82	 182
  82	 184
  82	 186
  82	 192
  82	 200
  82	 213
  82	 215
  82	 240
  82	 245
  83	  85
  83	  97
  83	 102
  83	 104
  83	 109
  83	 148
  83	 152
  83	 156
  83	 159
  83	 160
  83	 175
  83	 177
  83	 184
  83	 191
  83	 192
  83	 195
  83	 199
  83	 234
  83	 236
  83	 242
  83	 249
  84	 106
  84	 107
  84	 110
  84	 122
  84	 142
  84	 155
  84	 158
  84	 160
  84	 162
  84	 163
  84	 164
  84	 170
  84	 173
  84	 182
  84	 185
  84	 189
  84	 195
  84	 201
  84	 202
  84	 213
  84	 220
  84	 243
  84	 249
  85	  92
  85	 108
  85	 142
  85	 165
  85	 176
  85	 191
  85	 204
  85	 214
  85	 233
  85	 247
  86	 105
  86	 112
  86	 117
  86	 139
  86	 140
  86	 146
  86	 151
  86	 158
  86	 181
  86	 182
  86	 195
  86	 218
  86	 220
  86	 239
  86	 242
  86	 249
  87	  94
  87	 109
  87	 128
  87	 135
  87	 138
  87	 169
  87	 172
  87	 200
  87	 212
  87	 221
  87	 223
  87	 235
  87	 239
  87	 241
  87	 249
  88	 103
  88	 112
  88	 114
  88	 115
  88	 121
  88	 128
  88	 129
  88	 134
  88	 139
  88	 146
  88	 148
  88	 150
  88	 155
  88	 171
  88	 179
  88	 183
  88	 196
  88	 218
  88	 220
  88	 236
  88	 245
  89	 102
  89	 104
  89	 137
  89	 138
  89	 143
  89	 156
  89	 164
  89	 168
  89	 184
  89	 191
  89	 193
  89	 206
  89	 207
  89	 235
  89	 241
  90	 108
  90	 113
  90	 120
  90	 125
  90	 128
  90	 131
  90	 133
  90	 135
  90	 147
  90	 148
  90	 149
  90	 158
  90	 160
  90	 175
  90	 181
  90	 205
  90	 208
  90	 209
  90	 227
  90	 242
  91	 101
  91	 104
  91	 109
  91	 113
  91	 124
  91	 127
  91	 128
  91	 131
  91	 135
  91	 136
  91	 140
  91	 147
  91	 157
  91	 164
  91	 177
  91	 198
  91	 205
  91	 206
  91	 227
  91	 230
  92	 105
  92	 108
  92	 111
  92	 119
  92	 132
  92	 145
  92	 157
  92	 158
  92	 161
  92	 165
  92	 186
  92	 188
  92	 195
  92	 196
  92	 200
  92	 203
  92	 206
  92	 220
  92	 223
  92	 236
  92	 241
  92	 247
  93	 101
  93	 113
  93	 154
  93	 157
  93	 191
  93	 202
  93	 210
  93	 216
  93	 220
  93	 223
  94	  98
  94	 130
  94	 141
  94	 164
  94	 176
  94	 198
  94	 200
  94	 203
  94	 211
  94	 233
  94	 240
  94	 246
  94	 247
  95	  98
  95	 100
  95	 107
  95	 114
  95	 117
  95	 125
  95	 127
  95	 128
  95	 129
  95	 131
  95	 155
  95	 157
  95	 169
  95	 171
  95	 208
  95	 223
  95	 224
  95	 234
  96	 115
  96	 117
  96	 124
  96	 126
  96	 129
  96	 156
  96	 174
  96	 180
  96	 192
  96	 193
  96	 216
  96	 220
  96	 228
  96	 234
  96	 237
  96	 239
  96	 242
  97	 109
  97	 111
  97	 127
  97	 129
  97	 166
  97	 181
  97	 195
  97	 214
  97	 225
  97	 231
  98	 105
  98	 128
  98	 136
  98	 139
  98	 159
  98	 170
  98	 172
  98	 182
  98	 183
  98	 192
  98	 196
  98	 200
  98	 204
  98	 206
  98	 211
  98	 217
  98	 218
  98	 228
  98	 239
  99	 105
  99	 128
  99	 133
  99	 135
  99	 149
  99	 162
  99	 210
  99	 232
  99	 245
  99	 249
 100	 102
 100	 104
 100	 106
 100	 117
 100	 121
 100	 122
 100	 136
 100	 149
 100	 158
 100	 175
 100	 181
 100	 193
 100	 197
 100	 200
 100	 207
 100	 220
 100	 226
 100	 248
 101	 123
 101	 124
 101	 127
 101	 136
 101	 147
 101	 151
 101	 186
 101	 190
 101	 198
 101	 220
 101	 225
 101	 227
 101	 238
 102	 122
 102	 156
 102	 157
 102	 161
 102	 162
 102	 163
 102	 165
 102	 195
 102	 197
 102	 215
 102	 226
 102	 236
 102	 244
 103	 106
 103	 130
 103	 135
 103	 178
 103	 186
 103	 212
 103	 223
 103	 232
 103	 242
 104	 106
 104	 112
 104	 139
 104	 151
 104	 170
 104	 179
 104	 181
 104	 183
 104	 186
 104	 201
 104	 208
 104	 211
 104	 216
 104	 217
 104	 219
 104	 222
 104	 225
 105	 106
 105	 125
 105	 154
 105	 173
 105	 201
 105	 209
 105	 216
 105	 225
 105	 234
 105	 240
 105	 241
 105	 248
 105	 249
 106	 119
 106	 122
 106	 133
 106	 154
 106	 169
 106	 172
 106	 195
 106	 234
 106	 235
 107	 108
 107	 123
 107	 131
 107	 139
 107	 142
 107	 146
 107	 166
 107	 167
 107	 171
 107	 187
 107	 197
 107	 239
 107	 249
 108	 109
 108	 111
 108	 120
 108	 123
 108	 127
 108	 140
 108	 141
 108	 172
 108	 181
 108	 186
 108	 203
 108	 204
 108	 207
 108	 227
 108	 228
 108	 231
 108	 232
 108	 235
 108	 242
 109	 120
 109	 131
 109	 134
 109	 135
 109	 146
 109	 163
 109	 166
 109	 170
 109	 175
 109	 188
 109	 189
 109	 204
 109	 205
 109	 208
 109	 230
 110	 115
 110	 132
 110	 137
 110	 138
 110	 152
 110	 155
 110	 158
 110	 160
 110	 168
 110	 172
 110	 174
 110	 183
 110	 190
 110	 192
 110	 206
 110	 212
 110	 239
 111	 112
 111	 116
 111	 130
 111	 131
 111	 137
 111	 138
 111	 171
 111	 183
 111	 191
 111	 195
 111	 200
 111	 202
 111	 219
 111	 221
 111	 227
 111	 228
 111	 233
 111	 234
 112	 117
 112	 118
 112	 131
 112	 134
 112	 136
 112	 149
 112	 163
 112	 164
 112	 168
 112	 171
 112	 193
 112	 197
 112	 204
 112	 223
 112	 244
 112	 245
 112	 248
 113	 116
 113	 121
 113	 122
 113	 125
 113	 138
 113	 147
 113	 150
 113	 153
 113	 164
 113	 165
 113	 176
 113	 179
 113	 183
 113	 217
 113	 235
 113	 236
 113	 238
 113	 243
 114	 116
 114	 120
 114	 132
 114	 134
 114	 136
 114	 159
 114	 160
 114	 167
 114	 179
 114	 180
 114	 189
 114	 196
 114	 208
 114	 210
 114	 214
 114	 231
 114	 244
 115	 126
 115	 131
 115	 135
 115	 146
 115	 153
 115	 156
 115	 194
 115	 199
 115	 229
 115	 236
 116	 119
 116	 125
 116	 136
 116	 139
 116	 141
 116	 152
 116	 157
 116	 168
 116	 187
 116	 192
 116	 216
 116	 222
 116	 228
 116	 234
 116	 245
 117	 136
 117	 138
 117	 149
 117	 154
 117	 172
 117	 180
 117	 209
 117	 212
 117	 218
 117	 221
 117	 226
 117	 243
 117	 246
 118	 131
 118	 145
 118	 148
 118	 172
 118	 173
 118	 177
 118	 181
 118	 182
 118	 185
 118	 203
 118	 209
 118	 212
 118	 214
 118	 227
 118	 231
 118	 239
 118	 240
 118	 245
 119	 133
 119	 138
 119	 151
 119	 176
 119	 184
 119	 190
 119	 204
 119	 206
 119	 222
 119	 232
 119	 238
 120	 126
 120	 144
 120	 147
 120	 153
 120	 174
 120	 178
 120	 198
 120	 226
 121	 130
 121	 135
 121	 142
 121	 143
 121	 160
 121	 170
 121	 184
 121	 193
 121	 198
 121	 206
 121	 209
 121	 230
 121	 234
 121	 238
 122	 125
 122	 135
 122	 142
 122	 149
 122	 163
 122	 170
 122	 171
 122	 185
 122	 198
 122	 200
 122	 202
 122	 225
 122	 233
 122	 242
 122	 245
 123	 130
 123	 137
 123	 154
 123	 156
 123	 169
 123	 170
 123	 173
 123	 182
 123	 199
 123	 206
 123	 209
 123	 216
 123	 222
 123	 224
 124	 125
 124	 141
 124	 143
 124	 145
 124	 147
 124	 162
 124	 172
 124	 174
 124	 181
 124	 195
 124	 202
 124	 205
 124	 215
 124	 217
 124	 223
 124	 240
 124	 245
 125	 134
 125	 139
 125	 146
 125	 152
 125	 153
 125	 156
 125	 191
 125	 192
 125	 222
 125	 226
 125	 229
 125	 234
 125	 247
 126	 136
 126	 177
 126	 179
 126	 188
 126	 210
 126	 223
 126	 236
 126	 244
 126	 247
 127	 129
 127	 156
 127	 164
 127	 165
 127	 190
 127	 203
 127	 221
 127	 228
 127	 233
 127	 235
 127	 240
 128	 130
 128	 150
 128	 158
 128	 161
 128	 167
 128	 172
 128	 183
 128	 197
 128	 200
 128	 207
 128	 214
 128	 235
 128	 236
 128	 238
 129	 136
 129	 137
 129	 173
 129	 179
 129	 185
 129	 190
 129	 201
 129	 204
 129	 207
 129	 209
 129	 216
 129	 221
 129	 224
 129	 231
 130	 133
 130	 139
 130	 141
 130	 154
 130	 156
 130	 157
 130	 159
 130	 160
 130	 174
 130	 191
 130	 199
 130	 202
 130	 205
 130	 217
 130	 235
 130	 246
 130	 248
 131	 134
 131	 140
 131	 149
 131	 153
 131	 161
 131	 171
 131	 182
 131	 186
 131	 196
 131	 224
 132	 140
 132	 152
 132	 158
 132	 166
 132	 170
 132	 173
 132	 174
 132	 179
 132	 180
 132	 185
 132	 188
 132	 193
 132	 218
 132	 219
 132	 233
 132	 236
 133	 136
 133	 139
 133	 163
 133	 166
 133	 171
 133	 177
 133	 180
 133	 182
 133	 199
 133	 209
 133	 220
 133	 238
 133	 240
 133	 241
 134	 141
 134	 148
 134	 149
 134	 155
 134	 167
 134	 178
 134	 185
 134	 193
 134	 196
 134	 226
 134	 232
 134	 239
 134	 245
 135	 166
 135	 173
 135	 181
 135	 192
 135	 222
 135	 225
 135	 243
 135	 244
 136	 151
 136	 174
 136	 184
 136	 193
 136	 208
 136	 213
 136	 220
 136	 246
 137	 142
 137	 146
 137	 160
 137	 163
 137	 180
 137	 189
 137	 200
 137	 215
 137	 227
 137	 229
 138	 142
 138	 143
 138	 162
 138	 169
 138	 180
 138	 207
 138	 210
 138	 219
 138	 223
 138	 232
 138	 235
 138	 238
 139	 140
 139	 146
 139	 150
 139	 151
 139	 171
 139	 172
 139	 191
 139	 208
 139	 216
 139	 220
 139	 226
 139	 227
 139	 237
 139	 247
 140	 143
 140	 167
 140	 192
 140	 196
 140	 228
 140	 241
 140	 247
 141	 144
 141	 149
 141	 168
 141	 173
 141	 176
 141	 184
 141	 191
 141	 199
 141	 235
 142	 145
 142	 148
 142	 167
 142	 197
 142	 201
 142	 207
 142	 211
 142	 242
 143	 144
 143	 145
 143	 150
 143	 170
 143	 183
 143	 190
 143	 192
 143	 215
 143	 216
 143	 230
 144	 145
 144	 160
 144	 175
 144	 176
 144	 179
 144	 182
 144	 190
 144	 192
 144	 193
 144	 204
 144	 214
 144	 222
 144	 228
 144	 238
 144	 241
 144	 248
 145	 156
 145	 173
 145	 194
 145	 201
 145	 209
 145	 233
 145	 237
 145	 246
 146	 183
 146	 186
 146	 215
 146	 229
 146	 230
 146	 243
 146	 244
 147	 151
 147	 169
 147	 174
 147	 183
 147	 184
 147	 194
 147	 202
 147	 217
 147	 236
 147	 238
 148	 149
 148	 152
 148	 161
 148	 164
 148	 183
 148	 201
 148	 213
 148	 215
 148	 228
 148	 229
 148	 236
 148	 244
 148	 249
 149	 165
 149	 167
 149	 211
 149	 225
 149	 248
 149	 249
 150	 152
 150	 153
 150	 162
 150	 167
 150	 170
 150	 179
 150	 186
 150	 192
 150	 206
 150	 223
 150	 232
 150	 238
 150	 239
 151	 159
 151	 163
 151	 171
 151	 175
 151	 200
 151	 219
 151	 245
 152	 157
 152	 176
 152	 181
 152	 187
 152	 194
 152	 197
 152	 201
 152	 241
 153	 159
 153	 169
 153	 178
 153	 183
 153	 186
 153	 200
 153	 204
 153	 243
 154	 157
 154	 160
 154	 166
 154	 193
 154	 199
 154	 204
 154	 205
 154	 210
 154	 219
 154	 221
 154	 222
 155	 163
 155	 165
 155	 174
 155	 177
 155	 179
 155	 195
 155	 198
 155	 201
 155	 208
 155	 214
 155	 226
 155	 227
 155	 239
 156	 157
 156	 166
 156	 192
 156	 195
 156	 202
 156	 203
 156	 215
 157	 165
 157	 181
 157	 188
 157	 195
 157	 240
 158	 166
 158	 174
 158	 182
 158	 189
 158	 193
 158	 216
 158	 224
 158	 233
 158	 235
 158	 242
 159	 168
 159	 174
 159	 189
 159	 193
 159	 195
 159	 197
 159	 200
 159	 229
 159	 234
 159	 235
 160	 175
 160	 194
 160	 247
 161	 166
 161	 171
 161	 176
 161	 179
 161	 189
 161	 210
 161	 215
 161	 230
 161	 239
 162	 170
 162	 176
 162	 178
 162	 195
 162	 199
 162	 218
 162	 228
 162	 234
 162	 240
 162	 241
 162	 242
 163	 166
 163	 180
 163	 210
 163	 212
 163	 220
 163	 243
 164	 177
 164	 178
 164	 185
 164	 186
 164	 197
 164	 203
 164	 213
 164	 216
 164	 223
 164	 241
 164	 243
 164	 247
 165	 166
 165	 179
 165	 181
 165	 186
 165	 194
 165	 200
 165	 215
 165	 221
 165	 225
 165	 238
 166	 167
 166	 180
 166	 200
 166	 201
 166	 211
 166	 219
 166	 221
 166	 234
 166	 238
 166	 239
 167	 172
 167	 174
 167	 228
 167	 230
 168	 174
 168	 176
 168	 184
 168	 188
 168	 209
 168	 221
 168	 244
 169	 178
 169	 187
 169	 205
 169	 206
 169	 213
 169	 214
 169	 221
 169	 232
 169	 236
 170	 182
 170	 189
 170	 196
 170	 206
 170	 207
 170	 225
 170	 228
 170	 237
 171	 180
 171	 193
 171	 195
 171	 198
 171	 207
 171	 219
 171	 222
 171	 239
 171	 242
 171	 245
 172	 175
 172	 187
 172	 194
 172	 227
 172	 237
 173	 184
 173	 190
 173	 195
 173	 204
 173	 213
 173	 216
 173	 224
 173	 234
 173	 244
 173	 248
 174	 196
 174	 211
 174	 231
 174	 232
 174	 246
 175	 180
 175	 190
 175	 212
 175	 213
 175	 219
 175	 231
 175	 232
 175	 234
 176	 177
 176	 197
 176	 206
 176	 213
 176	 219
 176	 220
 176	 245
 177	 180
 177	 192
 177	 195
 177	 206
 177	 210
 177	 215
 177	 248
 178	 189
 178	 213
 178	 228
 178	 230
 178	 240
 179	 189
 179	 211
 179	 215
 179	 218
 179	 235
 179	 241
 180	 211
 180	 227
 180	 231
 180	 233
 180	 235
 180	 242
 180	 249
 181	 183
 181	 193
 181	 204
 181	 219
 181	 231
 182	 183
 182	 211
 182	 215
 182	 216
 182	 242
 182	 246
 182	 249
 183	 192
 183	 201
 183	 202
 183	 219
 183	 221
 183	 222
 183	 223
 183	 230
 183	 241
 183	 242
 184	 202
 184	 207
 184	 217
 184	 224
 184	 247
 185	 187
 185	 188
 185	 190
 185	 204
 185	 211
 185	 225
 185	 227
 185	 228
 185	 229
 186	 196
 186	 204
 186	 210
 186	 221
 186	 227
 187	 189
 187	 223
 187	 225
 187	 226
 187	 235
 187	 238
 187	 241
 188	 238
 188	 243
 188	 245
 189	 193
 189	 208
 190	 209
 190	 221
 190	 230
 191	 196
 191	 197
 191	 201
 191	 204
 191	 206
 191	 216
 191	 222
 191	 227
 191	 230
 191	 238
 191	 244
 191	 249
 192	 200
 192	 205
 192	 206
 192	 217
 192	 220
 192	 242
 192	 249
 193	 205
 193	 214
 193	 220
 193	 226
 193	 239
 193	 248
 194	 199
 194	 218
 194	 242
 195	 198
 195	 205
 195	 213
 195	 225
 195	 230
 195	 239
 196	 200
 196	 204
 196	 213
 196	 223
 197	 207
 197	 220
 197	 228
 197	 235
 197	 245
 197	 248
 198	 201
 198	 212
 198	 225
 199	 209
 199	 219
 199	 221
 199	 228
 199	 242
 200	 208
 200	 218
 200	 219
 200	 226
 200	 227
 200	 230
 200	 232
 200	 246
 201	 220
 201	 227
 202	 206
 202	 207
 202	 211
 202	 215
 202	 216
 202	 234
 203	 226
 204	 218
 204	 232
 204	 239
 204	 242
 205	 211
 205	 213
 205	 224
 205	 230
 205	 233
 206	 242
 207	 211
 207	 213
 207	 222
 207	 246
 208	 210
 208	 219
 208	 221
 208	 227
 208	 242
 209	 214
 209	 240
 210	 214
 210	 245
 210	 248
 211	 214
 211	 223
 211	 240
 211	 248
 212	 214
 212	 223
 212	 234
 212	 246
 213	 215
 213	 216
 213	 232
 214	 224
 214	 225
 214	 228
 214	 230
 214	 242
 214	 243
 214	 245
 215	 222
 215	 237
 215	 247
 216	 231
 216	 235
 216	 237
 216	 238
 216	 242
 217	 221
 217	 228
 217	 231
 217	 241
 217	 243
 218	 236
 218	 244
 218	 246
 218	 247
 219	 222
 219	 236
 220	 226
 220	 236
 220	 249
 221	 222
 221	 224
 221	 226
 221	 242
 222	 225
 222	 231
 222	 232
 222	 243
 223	 227
 223	 229
 224	 225
 224	 228
 224	 231
 224	 232
 224	 247
 225	 245
 225	 248
 226	 233
 226	 238
 227	 235
 227	 247
 228	 229
 228	 240
 228	 245
 229	 236
 229	 240
 229	 248
 230	 240
 230	 245
 230	 246
 231	 234
 231	 235
 231	 240
 232	 236
 232	 242
 233	 238
 234	 237
 234	 240
 236	 239
 237	 240
 238	 243
 239	 243
 239	 249
 241	 245
 243	 245
 243	 249
;
